c A SAT instance generated from a 3-CNF formula that had 36 clauses and 9 variables
p cnf 9 36
6 1 -4 0
6 -2 -1 0
-7 5 -9 0
3 6 -2 0
-4 -1 8 0
-2 -4 -7 0
-6 9 5 0
5 8 6 0
5 2 3 0
6 2 -7 0
7 -8 9 0
-4 3 -8 0
4 -2 1 0
7 -2 -3 0
-9 1 4 0
-7 -1 -4 0
-8 3 5 0
-7 5 3 0
-9 7 6 0
5 7 -6 0
-2 -9 3 0
-2 -4 5 0
2 -1 4 0
-7 -3 -4 0
-7 -1 5 0
-8 1 7 0
-9 3 5 0
3 -4 -8 0
-8 -2 -4 0
4 3 -7 0
6 3 -7 0
-7 -9 -3 0
-1 5 -8 0
2 -6 4 0
-8 3 -1 0
7 9 -6 0
